language ESSENCE' 1.0
$ loaded file: carseqdata/csplib-instance-16
letting numcars=200
letting numclasses=21
letting numoptions=5
letting optMax=[1, 2, 1, 2, 1]
letting windowSize=[2, 3, 3, 5, 5]
letting numberPerClass=[82, 20, 2, 3, 3, 1, 2, 28, 1, 2, 17, 2, 5, 12, 5, 4, 2, 1, 1, 5, 2]
letting optionsRequired=[[0, 1, 0, 0, 0], [0, 0, 0, 0, 1], [1, 1, 1, 1, 0], [0, 1, 0, 0, 1], [0, 1, 1, 1, 0], [1, 0, 1, 0, 1], [1, 1, 0, 1, 0], [0, 0, 0, 1, 0], [1, 1, 0, 1, 1], [1, 0, 1, 0, 0], [0, 0, 1, 0, 0], [1, 1, 0, 0, 1], [1, 1, 0, 0, 0], [1, 0, 0, 0, 0], [0, 1, 1, 0, 0], [1, 1, 1, 0, 0], [1, 0, 0, 1, 0], [0, 0, 1, 1, 0], [1, 0, 1, 1, 0], [0, 1, 0, 1, 0], [1, 0, 0, 0, 1]]
